NAME : kleinezf\2a3b4a.knd
COMMENT : 
TYPE : CVRP
DIMENSION : 201
EDGE_WEIGHT_TYPE : EUC_2D
CAPACITY : 10100
CAPACITY_VOL : 50
NODE_COORD_TYPE : TWOD_COORDS
NODE_COORD_SECTION
1 23452 56766
2 23150 55236
3 24683 55828
4 24389 55556
5 23597 55243
6 23885 55300
7 23849 55299
8 24438 55643
9 24438 55643
10 24005 55379
11 24675 55942
12 23292 55300
13 24808 56119
14 24656 55914
15 24159 55481
16 24159 55481
17 24111 55424
18 24790 56103
19 23699 55314
20 24718 56069
21 23123 55335
22 24327 55598
23 23174 55328
24 24001 55412
25 23040 55365
26 24766 57407
27 24766 57407
28 24883 56792
29 23977 55417
30 24575 55887
31 24284 55623
32 23298 55358
33 24865 56894
34 24120 55530
35 24171 57964
36 23324 55356
37 23080 55385
38 24858 56682
39 24853 56635
40 23307 55379
41 24002 55471
42 24002 55471
43 24455 57735
44 23900 55445
45 24741 56201
46 24521 55892
47 24802 56449
48 24244 55643
49 24802 56449
50 24260 55668
51 23771 55425
52 24208 55656
53 23019 55479
54 23019 55479
55 23756 55448
56 24328 55761
57 24001 55548
58 23735 55471
59 24477 55923
60 23660 55459
61 24003 55566
62 24092 55627
63 24119 55664
64 24069 55623
65 23776 55495
66 24248 55746
67 24740 56659
68 23671 55497
69 24233 55741
70 24427 55950
71 24427 55950
72 24427 55950
73 24218 55776
74 23937 57926
75 23379 55520
76 23463 55528
77 23463 55528
78 23237 55540
79 23573 55542
80 24618 56366
81 24675 56711
82 23541 55545
83 24137 57763
84 23785 57952
85 24336 55947
86 23767 55585
87 23373 55579
88 24590 56416
89 24070 55766
90 23826 55645
91 24063 55765
92 23891 55671
93 23748 55625
94 23702 55621
95 23682 55610
96 24545 56355
97 23774 55641
98 24410 57417
99 24296 55985
100 23121 55669
101 23088 55688
102 24166 55873
103 24240 55948
104 23536 55641
105 24353 56101
106 24430 57318
107 23719 55665
108 23563 55667
109 24311 56066
110 23463 55651
111 23578 55669
112 24558 56772
113 23774 55691
114 23237 55670
115 23237 55670
116 23864 55738
117 23374 55671
118 24167 57594
119 23374 55671
120 24095 55906
121 24251 56051
122 23190 55723
123 24120 55938
124 24424 57151
125 24091 55955
126 23487 55763
127 23906 55852
128 24233 56129
129 23592 55771
130 23222 55796
131 23341 55786
132 23706 55837
133 23369 55819
134 24229 56252
135 24003 56012
136 23529 55828
137 24130 56129
138 23794 55901
139 24130 56129
140 24169 56220
141 24121 56180
142 24180 57250
143 24180 57250
144 23868 57541
145 23520 55892
146 23937 56078
147 23951 56082
148 24213 56389
149 23788 56004
150 24032 57316
151 23428 55978
152 23780 56048
153 23026 57407
154 23578 56010
155 24146 57030
156 23359 57454
157 23470 56075
158 24084 56489
159 23038 57291
160 23896 57260
161 23896 57260
162 24051 57057
163 24051 57057
164 23048 56270
165 23188 56184
166 23985 56443
167 24073 56832
168 23163 56220
169 24032 56560
170 23789 56258
171 23062 57227
172 23657 56213
173 24004 56997
174 23581 56249
175 23941 56958
176 23685 57245
177 23685 57245
178 23305 56263
179 23828 57117
180 23093 56414
181 23931 56906
182 23920 56929
183 23259 56332
184 23143 57104
185 23307 57184
186 23101 57028
187 23693 57116
188 23090 56962
189 23840 56864
190 23694 57050
191 23292 56452
192 23194 56531
193 23777 56905
194 23681 56546
195 23636 56945
196 23254 56637
197 23452 57003
198 23652 56810
199 23339 56923
200 23301 56897
201 23381 56740
DEMAND_SECTION
1 0 0
2 450 0
3 710 0
4 500 0
5 910 0
6 510 0
7 580 0
8 420 0
9 390 0
10 380 0
11 960 0
12 420 0
13 910 0
14 370 0
15 810 0
16 490 0
17 730 0
18 640 0
19 680 0
20 700 0
21 420 0
22 240 0
23 890 0
24 280 0
25 600 0
26 450 0
27 780 0
28 940 0
29 680 0
30 640 0
31 890 0
32 470 0
33 870 0
34 850 0
35 110 0
36 180 0
37 620 0
38 300 0
39 380 0
40 910 0
41 740 0
42 140 0
43 880 0
44 990 0
45 240 0
46 870 0
47 820 0
48 620 0
49 590 0
50 340 0
51 860 0
52 560 0
53 480 0
54 540 0
55 360 0
56 990 0
57 770 0
58 830 0
59 400 0
60 190 0
61 910 0
62 140 0
63 190 0
64 470 0
65 140 0
66 890 0
67 200 0
68 250 0
69 230 0
70 140 0
71 140 0
72 860 0
73 440 0
74 540 0
75 780 0
76 750 0
77 260 0
78 830 0
79 810 0
80 680 0
81 150 0
82 170 0
83 890 0
84 500 0
85 240 0
86 830 0
87 860 0
88 460 0
89 500 0
90 960 0
91 110 0
92 970 0
93 440 0
94 740 0
95 620 0
96 180 0
97 790 0
98 300 0
99 810 0
100 580 0
101 650 0
102 230 0
103 670 0
104 840 0
105 180 0
106 420 0
107 290 0
108 220 0
109 110 0
110 340 0
111 990 0
112 970 0
113 840 0
114 220 0
115 550 0
116 450 0
117 650 0
118 500 0
119 740 0
120 480 0
121 620 0
122 580 0
123 990 0
124 940 0
125 490 0
126 200 0
127 390 0
128 900 0
129 390 0
130 860 0
131 610 0
132 900 0
133 350 0
134 910 0
135 100 0
136 630 0
137 230 0
138 420 0
139 470 0
140 220 0
141 990 0
142 140 0
143 290 0
144 720 0
145 120 0
146 290 0
147 170 0
148 970 0
149 180 0
150 690 0
151 300 0
152 140 0
153 520 0
154 120 0
155 440 0
156 520 0
157 780 0
158 180 0
159 130 0
160 190 0
161 630 0
162 220 0
163 140 0
164 330 0
165 700 0
166 980 0
167 890 0
168 980 0
169 320 0
170 380 0
171 370 0
172 290 0
173 140 0
174 680 0
175 740 0
176 250 0
177 220 0
178 520 0
179 190 0
180 290 0
181 450 0
182 910 0
183 970 0
184 840 0
185 380 0
186 340 0
187 300 0
188 250 0
189 710 0
190 430 0
191 340 0
192 900 0
193 530 0
194 760 0
195 840 0
196 790 0
197 370 0
198 470 0
199 950 0
200 560 0
201 170 0
PICKUP_SECTION
1 0 0
2 0 0
3 0 0
4 0 0
5 0 0
6 0 0
7 0 0
8 0 0
9 0 0
10 0 0
11 0 0
12 0 0
13 0 0
14 0 0
15 0 0
16 0 0
17 0 0
18 0 0
19 0 0
20 0 0
21 0 0
22 0 0
23 0 0
24 0 0
25 0 0
26 0 0
27 0 0
28 0 0
29 0 0
30 0 0
31 0 0
32 0 0
33 0 0
34 0 0
35 0 0
36 0 0
37 0 0
38 0 0
39 0 0
40 0 0
41 0 0
42 0 0
43 0 0
44 0 0
45 0 0
46 0 0
47 0 0
48 0 0
49 0 0
50 0 0
51 0 0
52 0 0
53 0 0
54 0 0
55 0 0
56 0 0
57 0 0
58 0 0
59 0 0
60 0 0
61 0 0
62 0 0
63 0 0
64 0 0
65 0 0
66 0 0
67 0 0
68 0 0
69 0 0
70 0 0
71 0 0
72 0 0
73 0 0
74 0 0
75 0 0
76 0 0
77 0 0
78 0 0
79 0 0
80 0 0
81 0 0
82 0 0
83 0 0
84 0 0
85 0 0
86 0 0
87 0 0
88 0 0
89 0 0
90 0 0
91 0 0
92 0 0
93 0 0
94 0 0
95 0 0
96 0 0
97 0 0
98 0 0
99 0 0
100 0 0
101 0 0
102 0 0
103 0 0
104 0 0
105 0 0
106 0 0
107 0 0
108 0 0
109 0 0
110 0 0
111 0 0
112 0 0
113 0 0
114 0 0
115 0 0
116 0 0
117 0 0
118 0 0
119 0 0
120 0 0
121 0 0
122 0 0
123 0 0
124 0 0
125 0 0
126 0 0
127 0 0
128 0 0
129 0 0
130 0 0
131 0 0
132 0 0
133 0 0
134 0 0
135 0 0
136 0 0
137 0 0
138 0 0
139 0 0
140 0 0
141 0 0
142 0 0
143 0 0
144 0 0
145 0 0
146 0 0
147 0 0
148 0 0
149 0 0
150 0 0
151 0 0
152 0 0
153 0 0
154 0 0
155 0 0
156 0 0
157 0 0
158 0 0
159 0 0
160 0 0
161 0 0
162 0 0
163 0 0
164 0 0
165 0 0
166 0 0
167 0 0
168 0 0
169 0 0
170 0 0
171 0 0
172 0 0
173 0 0
174 0 0
175 0 0
176 0 0
177 0 0
178 0 0
179 0 0
180 0 0
181 0 0
182 0 0
183 0 0
184 0 0
185 0 0
186 0 0
187 0 0
188 0 0
189 0 0
190 0 0
191 0 0
192 0 0
193 0 0
194 0 0
195 0 0
196 0 0
197 0 0
198 0 0
199 0 0
200 0 0
201 0 0
TIME_WINDOW_SECTION
2  7:00 18:00
3  7:00 18:00
4  7:00 18:00
5  7:00 18:00
6  7:00 18:00
7  7:00 18:00
8  7:00 18:00
9  7:00 18:00
10  7:00 18:00
11  7:00 18:00
12  7:00 18:00
13  7:00 18:00
14  7:00 18:00
15  7:00 18:00
16  7:00 18:00
17  7:00 18:00
18  7:00 18:00
19  7:00 18:00
20  7:00 18:00
21  7:00 18:00
22  7:00 18:00
23  7:00 18:00
24  7:00 18:00
25  7:00 18:00
26  7:00 18:00
27  7:00 18:00
28  7:00 18:00
29  7:00 18:00
30  7:00 18:00
31  7:00 18:00
32  7:00 18:00
33  7:00 18:00
34  7:00 18:00
35  7:00 18:00
36  7:00 18:00
37  7:00 18:00
38  7:00 18:00
39  7:00 18:00
40  7:00 18:00
41  7:00 18:00
42  7:00 18:00
43  7:00 18:00
44  7:00 18:00
45  7:00 18:00
46  7:00 18:00
47  7:00 18:00
48  7:00 18:00
49  7:00 18:00
50  7:00 18:00
51  7:00 18:00
52  7:00 18:00
53  7:00 18:00
54  7:00 18:00
55  7:00 18:00
56  7:00 18:00
57  7:00 18:00
58  7:00 18:00
59  7:00 18:00
60  7:00 18:00
61  7:00 18:00
62  7:00 18:00
63  7:00 18:00
64  7:00 18:00
65  7:00 18:00
66  7:00 18:00
67  7:00 18:00
68  7:00 18:00
69  7:00 18:00
70  7:00 18:00
71  7:00 18:00
72  7:00 18:00
73  7:00 18:00
74  7:00 18:00
75  7:00 18:00
76  7:00 18:00
77  7:00 18:00
78  7:00 18:00
79  7:00 18:00
80  7:00 18:00
81  7:00 18:00
82  7:00 18:00
83  7:00 18:00
84  7:00 18:00
85  7:00 18:00
86  7:00 18:00
87  7:00 18:00
88  7:00 18:00
89  7:00 18:00
90  7:00 18:00
91  7:00 18:00
92  7:00 18:00
93  7:00 18:00
94  7:00 18:00
95  7:00 18:00
96  7:00 18:00
97  7:00 18:00
98  7:00 18:00
99  7:00 18:00
100  7:00 18:00
101  7:00 18:00
102  7:00 18:00
103  7:00 18:00
104  7:00 18:00
105  7:00 18:00
106  7:00 18:00
107  7:00 18:00
108  7:00 18:00
109  7:00 18:00
110  7:00 18:00
111  7:00 18:00
112  7:00 18:00
113  7:00 18:00
114  7:00 18:00
115  7:00 18:00
116  7:00 18:00
117  7:00 18:00
118  7:00 18:00
119  7:00 18:00
120  7:00 18:00
121  7:00 18:00
122  7:00 18:00
123  7:00 18:00
124  7:00 18:00
125  7:00 18:00
126  7:00 18:00
127  7:00 18:00
128  7:00 18:00
129  7:00 18:00
130  7:00 18:00
131  7:00 18:00
132  7:00 18:00
133  7:00 18:00
134  7:00 18:00
135  7:00 18:00
136  7:00 18:00
137  7:00 18:00
138  7:00 18:00
139  7:00 18:00
140  7:00 18:00
141  7:00 18:00
142  7:00 18:00
143  7:00 18:00
144  7:00 18:00
145  7:00 18:00
146  7:00 18:00
147  7:00 18:00
148  7:00 18:00
149  7:00 18:00
150  7:00 18:00
151  7:00 18:00
152  7:00 18:00
153  7:00 18:00
154  7:00 18:00
155  7:00 18:00
156  7:00 18:00
157  7:00 18:00
158  7:00 18:00
159  7:00 18:00
160  7:00 18:00
161  7:00 18:00
162  7:00 18:00
163  7:00 18:00
164  7:00 18:00
165  7:00 18:00
166  7:00 18:00
167  7:00 18:00
168  7:00 18:00
169  7:00 18:00
170  7:00 18:00
171  7:00 18:00
172  7:00 18:00
173  7:00 18:00
174  7:00 18:00
175  7:00 18:00
176  7:00 18:00
177  7:00 18:00
178  7:00 18:00
179  7:00 18:00
180  7:00 18:00
181  7:00 18:00
182  7:00 18:00
183  7:00 18:00
184  7:00 18:00
185  7:00 18:00
186  7:00 18:00
187  7:00 18:00
188  7:00 18:00
189  7:00 18:00
190  7:00 18:00
191  7:00 18:00
192  7:00 18:00
193  7:00 18:00
194  7:00 18:00
195  7:00 18:00
196  7:00 18:00
197  7:00 18:00
198  7:00 18:00
199  7:00 18:00
200  7:00 18:00
201  7:00 18:00
STANDTIME_SECTION
2 9
3 12
4 10
5 14
6 10
7 10
8 9
9 8
10 8
11 14
12 9
13 14
14 8
15 13
16 9
17 12
18 11
19 11
20 12
21 9
22 7
23 13
24 7
25 11
26 9
27 12
28 14
29 11
30 11
31 13
32 9
33 13
34 13
35 6
36 6
37 11
38 8
39 8
40 14
41 12
42 6
43 13
44 14
45 7
46 13
47 13
48 11
49 10
50 8
51 13
52 10
53 9
54 10
55 8
56 14
57 12
58 13
59 9
60 6
61 14
62 6
63 6
64 9
65 6
66 13
67 7
68 7
69 7
70 6
71 6
72 13
73 9
74 10
75 12
76 12
77 7
78 13
79 13
80 11
81 6
82 6
83 13
84 10
85 7
86 13
87 13
88 9
89 10
90 14
91 6
92 14
93 9
94 12
95 11
96 6
97 12
98 8
99 13
100 10
101 11
102 7
103 11
104 13
105 6
106 9
107 7
108 7
109 6
110 8
111 14
112 14
113 13
114 7
115 10
116 9
117 11
118 10
119 12
120 9
121 11
122 10
123 14
124 14
125 9
126 7
127 8
128 14
129 8
130 13
131 11
132 14
133 8
134 14
135 6
136 11
137 7
138 9
139 9
140 7
141 14
142 6
143 7
144 12
145 6
146 7
147 6
148 14
149 6
150 11
151 8
152 6
153 10
154 6
155 9
156 10
157 12
158 6
159 6
160 6
161 11
162 7
163 6
164 8
165 12
166 14
167 13
168 14
169 8
170 8
171 8
172 7
173 6
174 11
175 12
176 7
177 7
178 10
179 6
180 7
181 9
182 14
183 14
184 13
185 8
186 8
187 8
188 7
189 12
190 9
191 8
192 14
193 10
194 12
195 13
196 12
197 8
198 9
199 14
200 10
201 6
DEPOT_SECTION
1
-1
EOF
